JulietBench/Juliet_Based_Patch_Bench/qemu/CWE-190-Integer-Overflow-or-Wraparound/CVE_2014_0143_6a83f8b5bec6f59e56cc49bd49e4c3f8f805d56f/cve2/Resultqcow2_open_Snippet_patch2NEQ.smt2
; benchmark generated from python API
(set-info :status unknown)
(declare-fun R () (_ BitVec 32))
(declare-fun rdi () (_ BitVec 64))
(assert
 (let (($x59 (and (distinct (_ bv0 32) R) true)))
 (let (($x54 (= (_ bv0 32) R)))
 (let ((?x6 ((_ extract 31 0) rdi)))
 (let (($x11 (bvsge (_ bv33554432 32) ?x6)))
 (let (($x55 (and $x11 $x54)))
 (let (($x45 (= (_ bv4294967269 32) R)))
 (let (($x41 (bvslt (_ bv33554432 32) ?x6)))
 (let (($x50 (and $x41 $x45)))
 (let (($x56 (or $x50 $x55)))
 (let (($x58 (not $x56)))
 (let (($x60 (and $x58 $x59)))
 (let (($x57 (and $x56 $x54)))
 (let (($x61 (or $x57 $x60)))
 (not $x61)))))))))))))))
(check-sat)
